(declare-fun Constructed_Argument_t () String)
(declare-fun Constructed_Argument_2_t () String)
(declare-fun CreateAsClass () Bool)
(declare-fun Constructed_Argument_2 () Bool)
(declare-fun Constructed_Argument () String)
(assert (= Constructed_Argument_t (str.++ (seq.unit #x73) (seq.unit #x74) (seq.unit #x72) (seq.unit #x69) (seq.unit #x6e) (seq.unit #x67))))
(assert (= Constructed_Argument_2_t (str.++ (seq.unit #x62) (seq.unit #x6f) (seq.unit #x6f) (seq.unit #x6c) (seq.unit #x65) (seq.unit #x61) (seq.unit #x6e))))
(assert (not CreateAsClass))
(assert (not Constructed_Argument_2))
(assert (<= (to_real (str.len Constructed_Argument)) 256.0))
(assert false)
(check-sat)
